NAME : instances/clustered-mixed-tsp/instance-45.tsp
COMMENT : No Comment
TYPE : TSP
DIMENSION: 54
EDGE_WEIGHT_TYPE : EUC_2D
NODE_COORD_SECTION
1 773 1086 
2 476 836 
3 945 521 
4 476 784 
5 357 780 
6 99 181 
7 879 552 
8 939 603 
9 478 869 
10 702 1072 
11 754 1055 
12 729 1096 
13 696 1067 
14 455 834 
15 794 978 
16 772 1099 
17 692 982 
18 -23 162 
19 -23 245 
20 822 571 
21 395 840 
22 805 1063 
23 873 553 
24 391 871 
25 815 1098 
26 378 895 
27 885 511 
28 768 1028 
29 809 627 
30 15 208 
31 939 522 
32 694 1026 
33 829 580 
34 440 892 
35 813 590 
36 370 824 
37 896 504 
38 -34 226 
39 344 794 
40 339 856 
41 850 531 
42 873 517 
43 940 515 
44 890 597 
45 478 847 
46 689 1084 
47 425 757 
48 78 146 
49 776 1001 
50 863 603 
51 789 1093 
52 92 192 
53 887 550 
54 747 1069 
EOF
